39 1 71 83 46 50 85 41 66 73 65 70 79 6 52 77 36 27 14 28 58 72 25 15 51 5 80 29 81 34 9 42 30 22 26 17 31 4 3 95 0 68 93 2 55 49 32 84 12 23 44 82 91 47 45 11 48 16 18 75 38 62 97 43 53 54 13 59 37 89 10 64 7 69 90 67 86 92 98 61 76 96 63 57 60 20 87 40 24 8 94 74 21 35 78 56 88 99 33 19 

